; output/00000009.smt: generated with canalyze.
; ($1 >= 0(S32)) Assumption: false
(declare-const $1 Int)
(assert (and (< (- 2147483648) $1) (< $1 2147483647)))
(assert (not (>= $1 0)))
; [sym$regval:0 [var: v]$] != NULL Assumption: true
(declare-const $0 Int)
(assert (and (< (- 9223372036854775808) $0) (< $0 9223372036854775807)))
(assert (not (= $0 0)))
(check-sat)
